(set-logic QF_S)
(declare-fun var0 () String)
(assert (str.in.re var0 (re.++ (re.+ (re.union (str.to.re "000") (str.to.re "1"))) (re.++ (re.* (re.+ (str.to.re "22"))) (re.++ (re.* (re.+ (str.to.re "33"))) (re.++ (re.* (re.union (str.to.re "44") (str.to.re "555"))) (re.++ (re.+ (re.union (str.to.re "666") (str.to.re "77"))) (re.++ (re.union (re.+ (str.to.re "888")) (re.+ (str.to.re "999"))) (re.++ (re.* (re.* (str.to.re "aa"))) (re.++ (re.union (re.union (str.to.re "b") (str.to.re "c")) (re.union (str.to.re "ddd") (str.to.re "e"))) (re.++ (re.* (re.union (str.to.re "f") (str.to.re "gg"))) (re.+ (re.+ (str.to.re "hhh"))))))))))))))
(assert (<= 201 (str.len var0)))
(check-sat)